data/instances/vrp_files/train_40.vrp
NAME : 40
COMMENT : Generated instance No. 40
TYPE : CVRP
DIMENSION : 21
EDGE_WEIGHT_TYPE : EUC_2D
CAPACITY : 30
NODE_COORD_SECTION
 1 913 612
 2 874 493
 3 702 992
 4 131 274
 5 394 421
 6 411 907
 7 714 607
 8 309 823
 9 955 821
 10 1 636
 11 51 257
 12 59 603
 13 686 114
 14 383 456
 15 369 121
 16 418 751
 17 71 80
 18 354 941
 19 668 678
 20 361 593
 21 10 636
DEMAND_SECTION
1 0
2 3
3 4
4 6
5 5
6 2
7 6
8 3
9 8
10 2
11 1
12 9
13 3
14 1
15 7
16 10
17 5
18 5
19 1
20 9
21 7
DEPOT_SECTION
 1
 -1
EOF